
MOSEK Version 8.0.0.51 (Build date: 2016-12-14 12:53:47)
Copyright (c) MOSEK ApS, Denmark. WWW: mosek.com
Platform: Linux/64-X86

Problem
  Name                   :                 
  Objective sense        : min             
  Type                   : LO (linear optimization problem)
  Constraints            : 1442            
  Cones                  : 0               
  Scalar variables       : 309             
  Matrix variables       : 0               
  Integer variables      : 273             

Optimizer started.
Mixed integer optimizer started.
Threads used: 72
Presolve started.
Presolve terminated. Time = 0.06
Presolved problem: 308 variables, 749 constraints, 2666 non-zeros
Presolved problem: 0 general integer, 273 binary, 35 continuous
Clique table size: 34
BRANCHES RELAXS   ACT_NDS  DEPTH    BEST_INT_OBJ         BEST_RELAX_OBJ       REL_GAP(%)  TIME  
0        1        0        0        NA                   1.0170487319e+02     NA          0.3   
Cut generation started.
0        2        0        0        NA                   1.0170487319e+02     NA          0.3   
Cut generation terminated. Time = 0.01
15       18       16       3        NA                   1.0180284824e+02     NA          0.6   
31       34       32       4        NA                   1.0181792474e+02     NA          0.6   
63       66       60       5        NA                   1.0182177207e+02     NA          0.6   
121      124      118      6        NA                   1.0183181914e+02     NA          0.7   
191      194      186      7        NA                   1.0183181914e+02     NA          0.8   
335      338      318      7        NA                   1.0186861028e+02     NA          1.0   
623      626      588      10       NA                   1.0190045368e+02     NA          1.2   
1199     1202     904      16       NA                   1.0193869264e+02     NA          1.5   
2063     2041     1208     16       NA                   1.0203317457e+02     NA          1.8   
3215     3185     1982     24       NA                   1.0206511829e+02     NA          2.1   
5080     5014     3025     26       NA                   1.0216183241e+02     NA          2.5   
7013     6920     4114     28       NA                   1.0216502697e+02     NA          2.8   
8975     8847     5158     31       NA                   1.0220596843e+02     NA          3.0   
10986    10833    6133     19       NA                   1.0220689345e+02     NA          3.5   
12998    12818    7173     31       NA                   1.0220692902e+02     NA          4.0   
15004    14803    8165     16       NA                   1.0220695103e+02     NA          4.4   
16997    16770    9156     22       NA                   1.0235938049e+02     NA          5.0   
18992    18743    10185    30       NA                   1.0236798817e+02     NA          5.4   
20983    20713    11182    15       NA                   1.0236871642e+02     NA          5.8   
22974    22684    12189    19       NA                   1.0236883922e+02     NA          6.3   
24960    24634    13201    15       NA                   1.0236888917e+02     NA          6.8   
26972    26620    14177    34       NA                   1.0240699199e+02     NA          7.2   
28927    28559    15182    20       NA                   1.0240707458e+02     NA          7.5   
30883    30492    16184    12       NA                   1.0240721905e+02     NA          8.1   
32846    32425    17195    10       NA                   1.0242575106e+02     NA          8.6   
34742    34289    18173    22       NA                   1.0245464576e+02     NA          9.0   
36711    36228    19154    14       1.0501214025e+02     1.0245465423e+02     2.44        9.6   
An optimal solution satisfying the relative gap tolerance of 3.50e+00(%) has been located.
The relative gap is 2.44e+00(%).

Objective of best integer solution : 1.050121402548e+02      
Best objective bound               : 1.024546542271e+02      
Construct solution objective       : Not employed
Construct solution # roundings     : 0
User objective cut value           : 0
Number of cuts generated           : 16
  Number of Gomory cuts            : 8
  Number of CMIR cuts              : 8
Number of branches                 : 36711
Number of relaxations solved       : 36228
Number of interior point iterations: 24
Number of simplex iterations       : 610343
Time spend presolving the root     : 0.06
Time spend in the heuristic        : 0.00
Time spend in the sub optimizers   : 0.00
  Time spend optimizing the root   : 0.21
Mixed integer optimizer terminated. Time: 9.74

Optimizer terminated. Time: 9.80    

Integer solution solution summary
  Problem status  : PRIMAL_FEASIBLE
  Solution status : INTEGER_OPTIMAL
  Primal.  obj: 1.0501214025e+02    nrm: 1e+04    Viol.  con: 2e-12    var: 0e+00    itg: 1e-16  
Optimizer summary
  Optimizer                 -                        time: 9.80    
    Interior-point          - iterations : 0         time: 0.00    
      Basis identification  -                        time: 0.00    
        Primal              - iterations : 0         time: 0.00    
        Dual                - iterations : 0         time: 0.00    
        Clean primal        - iterations : 0         time: 0.00    
        Clean dual          - iterations : 0         time: 0.00    
    Simplex                 -                        time: 0.00    
      Primal simplex        - iterations : 0         time: 0.00    
      Dual simplex          - iterations : 0         time: 0.00    
    Mixed integer           - relaxations: 36228     time: 9.74    

